
  32   50
   9   10    8    9   12   11   10   10    7   25   10    9   21   14   17   13    8   12    9   14    7   11    5   13   17   11    6    7    9   11   11    5    0    0    0    0    0    0    0    0    0    0    0    0    0    0    0    0    0    0

   0   0   0   0   0   0   0   0   0   0   0   0   0   0   0   0   0   0   0   0   0   0   0   0   0   0   0   0   0   0   0   0   0   0   0   0   0   0   0   0   0   0   0   0   0   0   0   0   0   0   0   8 2 3 4 5 7 8 12 17 
   7   0  10   0   0   9   4   0   0   0   0   0   0   0   0   0   0   0   0   0   0   0   0   0   0   8   0   6   0   0   0   0   0   0   0   0   0   0   0   0   0   0   0   0   0   0   0   0   0   0   0   6 31 28 18 14 11 9 
   5   0   0   0   0   0   0   0   8   0   0   0   0   0   3   0   0   0   0   0   2   0   0   0   0   0   0   0   0   0   0   4   0   0   0   0   0   0   0   0   0   0   0   0   0   0   0   0   0   0   0   8 31 30 28 26 18 16 15 10 
   1   0   0   0   0   0   0   0   2   0   0   0   0  10   0   0   0   0   0   0   0   0   0   2   0   0   0   0   0   0   0   0   0   0   0   0   0   0   0   0   0   0   0   0   0   0   0   0   0   0   0   3 13 11 6 
   5   0   0   0   0   0   0   0   0   0   0   0   0   0   4   0   0   0   0   0   0   0   0   2   0   0   0   0   7   0   0   0   0   0   0   0   0   0   0   0   0   0   0   0   0   0   0   0   0   0   0   5 27 26 16 14 13 
   8   0   0   0   0   0   0   0   0   2   0   0   0   7   1   0   0   0   0   0   0   0   0   0   0   0   0   0   0   0   0   0   0   0   0   0   0   0   0   0   0   0   0   0   0   0   0   0   0   0   0   7 29 26 24 23 22 21 15 
   9   0   0   0   0   0   0   0   0   0   0   9   0   5   0   0   0   0   5   0   0   0   0   0   0   0   0   0   0   0   0   0   0   0   0   0   0   0   0   0   0   0   0   0   0   0   0   0   0   0   0   8 28 26 25 24 22 21 20 19 
   6   0   0   0   0   5   0   0   2   0   0   0   0   1   0   0   0   0   0   0   0   0   0   3   0   5   0   0   0   0   0   0   0   0   0   0   0   0   0   0   0   0   0   0   0   0   0   0   0   0   0   7 30 28 25 22 21 19 18 
   3   0   0   0   0   0   0   0   3   3   0   0   0   0   0   0   0   0   0   0   0   0   0   0   0   0   0   0   0   0   0   0   0   0   0   0   0   0   0   0   0   0   0   0   0   0   0   0   0   0   0   3 27 26 13 
   3   0   0   0   0   0   0   0   5   3   0   0   0   0   0   0   0   0   0   3   0   0   0   0   5   0   0   0   0   2   0   0   0   0   0   0   0   0   0   0   0   0   0   0   0   0   0   0   0   0   0   7 29 25 23 22 21 20 19 
   7   0   0   0   0   0   5   0   0   0   0   2   0   0   0   0   0   0   0   0   0   0   0   0   0   1   0   0   0   0   0   0   0   0   0   0   0   0   0   0   0   0   0   0   0   0   0   0   0   0   0   3 26 16 15 
   9   1   0   0   0   0   6   0   0   0   0   0   0  10   6   0   6   0   0   0   0   0   0   0   0   0   0   0   0   0   0   6   0   0   0   0   0   0   0   0   0   0   0   0   0   0   0   0   0   0   0   4 21 20 19 18 
  10   0   0   0   0   0   0   0   0   0   5   0   0   0   0   0   0   0   9   0   0   0   0   0   0  10   0   0   0   0   0   4   0   0   0   0   0   0   0   0   0   0   0   0   0   0   0   0   0   0   0   3 25 22 15 
  10   0   0   0   0   0   0   0   0   2   0   0   0   4   0   0   1   0   0   0   0   0   0   0   7   9   5   0   0   0   0   1   0   0   0   0   0   0   0   0   0   0   0   0   0   0   0   0   0   0   0   4 24 23 21 19 
   7   0   0   0   0   0   0   0   0   0   0   0   0   2   0   8   0   7  10   0   6   0   0   0   0   0   0   0   0   0   0   0   0   0   0   0   0   0   0   0   0   0   0   0   0   0   0   0   0   0   0   2 20 19 
   1   0  10   0   0   0   9   0   0   0   0   0   0   0   0   0   0   0   0   0   2   0   6   0   0   3   0   0   0   9   0   8   0   0   0   0   0   0   0   0   0   0   0   0   0   0   0   0   0   0   0   2 24 23 
   5   0   0   0   0   0   3   0   0   0   0   0   0   0   0   9  10   0   9   0   0   0   0   0   0   0   4   0   0   0   3   0   0   0   0   0   0   0   0   0   0   0   0   0   0   0   0   0   0   0   0   2 27 21 
   2   0   0   0   0   0   0   0   2   3   9   0   0   0   0   0   0   0   0   0   0   1   9   0   0   0   0   0   0   0   0   0   0   0   0   0   0   0   0   0   0   0   0   0   0   0   0   0   0   0   0   1 27 
   7   0   0   0   1   0   0   0   3   0   3   0   0   0   0   0   0   0   0   0   0   0   0   0   0   0   0   0   0   0   0   0   0   0   0   0   0   0   0   0   0   0   0   0   0   0   0   0   0   0   0   1 32
   3   0   0   1   0   0   0   0   0   0   0   0   0   0   0   0   0   0   0   0   0   0   0   0   0   0   0   0   0   0   0   0   0   0   0   0   0   0   0   0   0   0   0   0   0   0   0   0   0   0   0   1 32
   6   0   2   0   0   0   0   7   0   0   9   0   0   7   5   0   0   0   0   1   0   0   0   0   0   3   0   0   0   0   0   0   5   0   0   0   0   0   0   0   0   0   0   0   0   0   0   0   0   0   0   1 32
   2   0   0   0   0   0   0   0   0   0   0   0   0   4   0   0   0   0   0   0   4   0  10   0   0   0   0   3   0   0   0   0   0   0   0   0   0   0   0   0   0   0   0   0   0   0   0   0   0   0   0   1 32
   6   0   0   0   0   2   0   0   0   0   9   0   0   0   0   0   0   0   4   1   0   3   2   0   0   0   0   0   0   0   0   0   0   0   0   0   0   0   0   0   0   0   0   0   0   0   0   0   0   0   0   1 32
   7   9   0   0   0   0   0   6   0   0   7   0   0   0   0   4   1   0   0   0   0   6   0   0   0   0   0   0   0   0   2   0   0   0   0   0   0   0   0   0   0   0   0   0   0   0   0   0   0   0   0   1 32
   2   0   0   8   0   0   0   0   0   0   9   0   0   0   0   0   9   0   0   8   0   0   0   0   0   0   0   0   0   0  10   2   0   0   0   0   0   0   0   0   0   0   0   0   0   0   0   0   0   0   0   1 32
   8   0   0   0   0   0   0   0   0   0   0   0   0   0   0  10   0   0   0   0   0   0   0   0   9   0   0   0   0   0   0   0   0   0   0   0   0   0   0   0   0   0   0   0   0   0   0   0   0   0   0   1 32
   6   0   0   0   9   0   0   0   0   0   0   0   0   0   0   0   0   0   0   0   7   0   0   0   0   0   8   0   0   0   0   0   0   0   0   0   0   0   0   0   0   0   0   0   0   0   0   0   0   0   0   1 32
   8   2   0   0   0   0   0   7   0   0   0   0   0   0   7   3   8   0   0   0   0   0   0   0   0   0   0   0   0   0   9   0   0   0   0   0   0   0   0   0   0   0   0   0   0   0   0   0   0   0   0   1 32
   3   0   0   0   0   0   5   0   7   0   0   0   9   0   0   0   0   0   0   0   0   4   0   0   0   0   0   0   0   0   1   0   0   0   0   0   0   0   0   0   0   0   0   0   0   0   0   0   0   0   0   1 32
   2   0   0   0   0   0   0   0   0   0   0   0   0   1  10   0   0   0   0   0   0   0   0   0   0   0   0   0   0   0   0   0   0   0   0   0   0   0   0   0   0   0   0   0   0   0   0   0   0   0   0   1 32
   8   0   0   8   0   0   0   0   0   0   0   0   0   0   0   0   0   8   0   0   9   0   0   0   0   0   0   0   0   0   0   0   0   0   0   0   0   0   0   0   0   0   0   0   0   0   0   0   0   0   0   1 32
   0   0   0   0   0   0   0   0   0   0   0   0   0   0   0   0   0   0   0   0   0   0   0   0   0   0   0   0   0   0   0   0   0   0   0   0   0   0   0   0   0   0   0   0   0   0   0   0   0   0   0   0 
